100
1000
162
161
159
159
157
157
156
155
154
152
152
148
147
147
142
142
140
138
137
132
131
130
129
126
124
124
123
123
123
122
121
120
120
119
119
116
116
115
114
113
113
112
110
109
108
107
107
105
104
104
102
100
99
98
96
94
94
94
93
93
93
92
91
90
90
88
87
85
83
82
82
78
78
78
77
76
76
75
75
74
73
73
71
70
69
69
68
68
67
66
65
64
64
63
61
61
60
59
58
57
